
n_res = 4;
rcap = [20, 17, 267, 252];
rtype = [1, 1, 2, 2];
n_tasks = 50;
modes =  [{1, 2, 3}, {4, 5, 6}, {7, 8, 9}, {10, 11, 12}, {13, 14, 15}, {16, 17, 18}, {19, 20, 21}, {22, 23, 24}, {25, 26, 27}, {28, 29, 30}, {31, 32, 33}, {34, 35, 36}, {37, 38, 39}, {40, 41, 42}, {43, 44, 45}, {46, 47, 48}, {49, 50, 51}, {52, 53, 54}, {55, 56, 57}, {58, 59, 60}, {61, 62, 63}, {64, 65, 66}, {67, 68, 69}, {70, 71, 72}, {73, 74, 75}, {76, 77, 78}, {79, 80, 81}, {82, 83, 84}, {85, 86, 87}, {88, 89, 90}, {91, 92, 93}, {94, 95, 96}, {97, 98, 99}, {100, 101, 102}, {103, 104, 105}, {106, 107, 108}, {109, 110, 111}, {112, 113, 114}, {115, 116, 117}, {118, 119, 120}, {121, 122, 123}, {124, 125, 126}, {127, 128, 129}, {130, 131, 132}, {133, 134, 135}, {136, 137, 138}, {139, 140, 141}, {142, 143, 144}, {145, 146, 147}, {148, 149, 150}];
succ =  [{20, 17, 13, 7, 3}, {24, 23, 19, 8, 6}, {25, 19, 18, 15, 9}, {24, 18, 16, 7}, {35, 30, 27, 24, 21, 20, 18}, {25, 15, 14}, {35, 34, 31, 28, 27, 23, 14}, {37, 34, 32, 21, 15}, {40, 35, 34, 30, 29, 24, 23, 21}, {29, 28, 27, 26, 25, 24, 23}, {36, 34, 32, 30, 29, 28, 24}, {35, 34, 33, 28, 27, 26, 23}, {50, 40, 36, 34, 32, 29, 27, 24}, {40, 39, 37, 33, 32, 29, 21}, {33, 31, 29, 27, 22}, {32, 27, 26, 22}, {40, 37, 35, 33, 27, 23}, {37, 29, 28, 23}, {48, 47, 46, 38, 37, 35, 30, 27}, {50, 45, 38, 37, 34, 33, 32, 31}, {50, 47, 44, 43, 42, 26}, {47, 46, 38, 30, 28}, {50, 48, 47, 42, 39, 36, 32}, {49, 47, 45, 42, 38, 37, 33}, {50, 43, 41, 36, 34}, {49, 48, 38, 36}, {49, 44, 43, 42, 39}, {45, 44, 43, 41, 40}, {46, 45, 44, 38}, {50, 44, 42, 39}, {48, 43, 42, 41}, {49, 43, 41}, {48, 46, 44}, {47, 44, 42}, {45, 43, 42}, {46, 45}, {43, 41}, {41}, {41}, {42}, {}, {}, {}, {}, {}, {}, {}, {}, {}, {}];
n_opt = 150;
dur = [5, 6, 7, 1, 2, 10, 4, 8, 10, 1, 7, 8, 4, 8, 9, 2, 8, 10, 4, 6, 7, 1, 6, 7, 2, 5, 9, 1, 2, 3, 2, 7, 8, 3, 5, 6, 3, 5, 10, 1, 10, 10, 4, 7, 10, 1, 2, 7, 1, 5, 7, 6, 8, 9, 1, 3, 10, 1, 2, 9, 3, 7, 9, 5, 8, 9, 1, 7, 10, 1, 7, 8, 5, 5, 10, 3, 5, 10, 1, 3, 6, 1, 5, 8, 1, 7, 10, 2, 3, 4, 2, 3, 4, 4, 6, 7, 4, 5, 10, 1, 3, 5, 9, 10, 10, 2, 5, 7, 8, 9, 10, 3, 5, 10, 2, 3, 4, 3, 5, 7, 2, 6, 7, 2, 5, 10, 4, 7, 7, 2, 8, 9, 2, 10, 10, 1, 2, 7, 4, 9, 10, 1, 2, 5, 4, 8, 9, 3, 5, 10];
rreq = [|5, 4, 4, 0, 0, 0, 0, 0, 0, 2, 0, 0, 6, 5, 5, 8, 7, 5, 0, 0, 0, 0, 0, 4, 8, 0, 0, 0, 0, 0, 0, 4, 4, 0, 0, 4, 0, 4, 0, 9, 0, 6, 3, 0, 0, 0, 0, 1, 10, 5, 0, 8, 0, 0, 0, 0, 8, 0, 3, 0, 0, 5, 0, 9, 0, 7, 10, 9, 8, 0, 0, 0, 0, 8, 0, 0, 0, 0, 0, 0, 0, 6, 3, 2, 7, 0, 0, 3, 0, 0, 6, 4, 4, 5, 4, 4, 0, 0, 0, 0, 0, 0, 4, 4, 0, 3, 0, 3, 0, 0, 0, 4, 4, 0, 6, 0, 4, 5, 0, 0, 0, 3, 2, 8, 6, 3, 6, 4, 0, 0, 0, 0, 0, 0, 1, 6, 4, 0, 0, 7, 6, 0, 1, 0, 10, 0, 0, 10, 8, 8
 |0, 0, 0, 6, 4, 4, 7, 4, 3, 0, 6, 6, 0, 0, 0, 0, 0, 0, 4, 2, 1, 7, 7, 0, 0, 4, 4, 9, 8, 8, 7, 0, 0, 9, 9, 0, 4, 0, 3, 0, 8, 0, 0, 4, 3, 6, 4, 0, 0, 0, 1, 0, 3, 2, 3, 3, 0, 7, 0, 5, 6, 0, 1, 0, 2, 0, 0, 0, 0, 3, 2, 2, 10, 0, 7, 1, 1, 1, 7, 4, 3, 0, 0, 0, 0, 3, 3, 0, 9, 8, 0, 0, 0, 0, 0, 0, 4, 4, 3, 4, 2, 1, 0, 0, 3, 0, 5, 0, 4, 2, 1, 0, 0, 7, 0, 7, 0, 0, 1, 1, 10, 0, 0, 0, 0, 0, 0, 0, 5, 6, 3, 3, 6, 6, 0, 0, 0, 5, 2, 0, 0, 4, 0, 3, 0, 3, 1, 0, 0, 0
 |3, 3, 2, 9, 5, 4, 2, 1, 1, 5, 4, 3, 5, 5, 4, 3, 2, 2, 5, 5, 4, 8, 5, 4, 7, 6, 6, 7, 5, 3, 6, 3, 3, 7, 6, 4, 7, 4, 3, 7, 5, 3, 8, 6, 6, 8, 7, 4, 9, 6, 4, 10, 6, 5, 8, 5, 2, 3, 2, 1, 9, 9, 8, 9, 6, 6, 7, 6, 4, 7, 4, 3, 7, 6, 4, 8, 8, 6, 1, 1, 1, 10, 9, 9, 4, 3, 3, 9, 9, 9, 5, 2, 2, 7, 7, 7, 4, 4, 4, 1, 1, 1, 6, 3, 1, 8, 6, 3, 10, 6, 6, 8, 7, 6, 8, 8, 7, 8, 4, 2, 4, 2, 2, 8, 8, 8, 9, 3, 1, 8, 7, 6, 7, 7, 7, 4, 3, 3, 6, 5, 3, 10, 10, 10, 8, 4, 2, 3, 2, 2
 |7, 6, 4, 9, 8, 7, 7, 7, 3, 5, 3, 2, 10, 7, 5, 8, 7, 6, 8, 6, 3, 1, 1, 1, 3, 3, 2, 7, 5, 3, 3, 3, 2, 8, 8, 8, 2, 1, 1, 9, 5, 4, 7, 4, 2, 4, 4, 4, 8, 7, 7, 7, 5, 4, 9, 6, 5, 7, 7, 6, 6, 6, 6, 4, 2, 2, 6, 5, 5, 8, 8, 8, 8, 4, 3, 4, 2, 1, 8, 6, 3, 8, 7, 5, 8, 7, 6, 9, 5, 3, 9, 9, 8, 1, 2, 1, 5, 3, 3, 6, 4, 1, 7, 5, 3, 10, 9, 8, 9, 7, 7, 2, 1, 1, 6, 4, 3, 8, 5, 3, 2, 1, 1, 4, 2, 2, 9, 5, 4, 4, 4, 2, 5, 3, 3, 3, 3, 3, 8, 4, 3, 7, 4, 4, 5, 5, 3, 7, 6, 5|];